param set_len = 28;
param target = 3753363669;
param values := [0] 488303610 [1] 49497896 [2] 422259850 [3] 166447234 [4] 62891415 [5] 110657384 [6] 261454246 [7] 215997590 [8] 393484726 [9] 304405188 [10] 284688734 [11] 227104969 [12] 418445430 [13] 37945758 [14] 442769836 [15] 351798886 [16] 161312905 [17] 199822453 [18] 295399123 [19] 405270785 [20] 362498410 [21] 102898314 [22] 298138970 [23] 12400767 [24] 535076052 [25] 103066839 [26] 476778409 [27] 450061000 ;
